data;


param d:= 100;
param r:=5;
param p:=0.100000;
param M:=1000;
param U:=
         1         1        1.106568e+00
         2         1        1.814822e+00
         3         1       -2.533812e+00
         4         1        1.078331e+00
         5         1       -3.176238e-01
         6         1       -7.802418e-01
         7         1        1.100278e+00
         8         1       -1.239479e+00
         9         1       -3.883021e-02
        10         1        7.596029e-01
        11         1        1.602016e+00
        12         1        7.383004e-01
        13         1       -7.750733e-01
        14         1        1.865868e+00
        15         1        4.136724e-01
        16         1        3.703619e-01
        17         1        5.056018e-01
        18         1       -1.339505e+00
        19         1        4.835791e-01
        20         1        1.923227e+00
        21         1        1.125897e+00
        22         1       -3.331642e-01
        23         1       -5.834465e-01
        24         1       -1.996871e+00
        25         1        8.385810e-01
        26         1       -6.052732e-01
        27         1       -9.052447e-01
        28         1        7.053639e-01
        29         1        3.667092e-01
        30         1        2.904534e-02
        31         1        8.175922e-01
        32         1        6.978959e-01
        33         1       -9.504653e-01
        34         1       -1.300784e+00
        35         1       -1.868607e-01
        36         1        1.384775e+00
        37         1        3.654230e-01
        38         1       -9.525587e-01
        39         1       -3.006824e-01
        40         1       -2.352860e+00
        41         1       -4.530439e-01
        42         1       -1.506254e+00
        43         1       -3.278044e-01
        44         1       -9.618539e-01
        45         1       -2.329293e-01
        46         1       -1.451866e+00
        47         1       -2.326841e-01
        48         1       -8.789964e-02
        49         1       -1.721306e-01
        50         1       -9.927114e-01
        51         1       -6.685306e-01
        52         1        8.060154e-01
        53         1        2.737512e-01
        54         1       -1.279831e+00
        55         1       -4.918424e-01
        56         1        3.444244e-01
        57         1        9.339349e-02
        58         1        2.357128e+00
        59         1       -1.281235e+00
        60         1        1.124029e+00
        61         1       -7.687595e-01
        62         1        1.197906e+00
        63         1        1.419358e+00
        64         1       -4.237630e-02
        65         1       -1.546285e-01
        66         1        2.856243e-01
        67         1        1.828704e+00
        68         1       -1.072426e+00
        69         1        7.726619e-01
        70         1       -6.599000e-01
        71         1        2.750976e-01
        72         1       -5.429827e-01
        73         1       -7.275835e-01
        74         1       -1.845262e+00
        75         1        1.444939e+00
        76         1       -1.119335e+00
        77         1        8.662606e-01
        78         1       -4.404195e-01
        79         1        5.248969e-01
        80         1        4.518960e-01
        81         1       -1.223551e+00
        82         1       -1.411177e-01
        83         1       -1.167534e+00
        84         1       -7.305589e-01
        85         1        1.762387e-01
        86         1       -6.972537e-01
        87         1       -1.055405e+00
        88         1       -1.951885e+00
        89         1       -3.175482e-01
        90         1        1.428533e+00
        91         1        1.340633e+00
        92         1       -2.222655e-01
        93         1        4.524717e-01
        94         1       -2.146570e-01
        95         1       -6.609566e-01
        96         1        2.698977e-01
        97         1       -2.662403e-01
        98         1        6.977063e-01
        99         1        8.501179e-01
       100         1       -2.679220e-01
         1         2       -6.459827e-01
         2         2       -1.176601e+00
         3         2        4.318805e-01
         4         2        3.154765e-01
         5         2        4.889059e-01
         6         2        1.634212e+00
         7         2        9.627014e-01
         8         2       -5.758568e-01
         9         2        5.347649e-01
        10         2        6.345614e-01
        11         2        8.170182e-01
        12         2       -9.674484e-03
        13         2        8.777908e-01
        14         2        1.698564e-01
        15         2       -4.664075e-01
        16         2        1.098307e+00
        17         2       -1.228572e+00
        18         2       -1.307082e+00
        19         2        3.982226e-01
        20         2       -2.726481e-01
        21         2        2.843065e-01
        22         2        1.140917e-01
        23         2        1.951867e+00
        24         2       -1.442550e+00
        25         2       -1.223961e+00
        26         2        1.849904e+00
        27         2       -5.478977e-01
        28         2       -5.135796e-01
        29         2        1.041244e-01
        30         2        5.508250e-01
        31         2       -7.419524e-01
        32         2        6.804580e-02
        33         2       -1.618790e+00
        34         2        3.032418e-01
        35         2       -5.452823e-01
        36         2       -1.219494e-02
        37         2       -1.468993e-01
        38         2        8.502428e-01
        39         2        1.580946e+00
        40         2        1.394360e+00
        41         2       -6.651337e-01
        42         2        9.021084e-01
        43         2       -5.409146e-01
        44         2        8.571132e-02
        45         2       -1.694884e+00
        46         2       -2.387407e-01
        47         2       -4.742828e-01
        48         2        4.105795e-01
        49         2       -3.444534e-01
        50         2        4.726449e-01
        51         2        1.070114e+00
        52         2        9.489697e-01
        53         2        1.995957e-01
        54         2        4.996945e-01
        55         2       -7.935621e-01
        56         2       -7.831994e-01
        57         2       -1.519315e+00
        58         2        3.532668e-01
        59         2       -2.911537e-02
        60         2       -4.422174e-01
        61         2        6.531316e-02
        62         2       -7.394053e-01
        63         2       -1.408643e+00
        64         2        7.614245e-01
        65         2        2.319377e-01
        66         2       -2.960053e-01
        67         2        7.035766e-01
        68         2       -2.003728e+00
        69         2        3.332909e-01
        70         2       -1.230444e-02
        71         2       -1.686347e-01
        72         2        5.565237e-01
        73         2        1.703523e+00
        74         2        7.322190e-01
        75         2        1.186762e+00
        76         2       -1.306823e+00
        77         2        3.903156e-01
        78         2        7.004047e-02
        79         2       -1.736837e-01
        80         2       -2.953483e-01
        81         2        5.061860e-01
        82         2        6.708038e-01
        83         2        5.083703e-01
        84         2        6.569007e-01
        85         2        2.625448e-01
        86         2       -4.108033e-01
        87         2       -3.401045e-01
        88         2       -5.543870e-02
        89         2       -1.027301e+00
        90         2       -2.596271e-01
        91         2        2.509544e-01
        92         2        1.081449e-01
        93         2       -3.313128e-01
        94         2        6.630029e-02
        95         2       -5.047168e-01
        96         2       -4.923754e-01
        97         2       -4.681412e-02
        98         2        1.357459e-01
        99         2       -2.761289e-01
       100         2        7.504565e-03
         1         3       -2.650193e-01
         2         3       -1.354568e+00
         3         3        1.918044e+00
         4         3       -3.520647e-01
         5         3        4.077028e-01
         6         3        3.034904e-01
         7         3        5.620532e-01
         8         3        2.134552e-01
         9         3        4.572380e-01
        10         3        3.825483e-01
        11         3       -1.290531e-01
        12         3       -1.444857e+00
        13         3       -1.057832e+00
        14         3       -2.423202e-01
        15         3        1.577742e+00
        16         3        8.384157e-01
        17         3        4.515558e-01
        18         3        1.123694e-01
        19         3        5.163760e-01
        20         3        2.092505e-01
        21         3        6.802084e-01
        22         3       -2.039794e+00
        23         3       -5.891308e-01
        24         3        4.111758e-01
        25         3       -4.220330e-01
        26         3        2.726780e-01
        27         3        1.277281e+00
        28         3       -8.181509e-01
        29         3        1.249138e+00
        30         3        5.702363e-01
        31         3       -2.407410e-01
        32         3       -2.089498e-01
        33         3       -2.154588e+00
        34         3        8.022741e-01
        35         3        1.476930e+00
        36         3        8.400618e-01
        37         3       -1.113909e+00
        38         3       -4.954779e-01
        39         3       -9.725284e-01
        40         3       -1.500611e+00
        41         3       -6.784733e-01
        42         3        1.117483e+00
        43         3        1.964908e-01
        44         3       -4.208833e-01
        45         3        1.133931e+00
        46         3       -6.705224e-01
        47         3        9.406836e-01
        48         3       -7.503772e-01
        49         3        2.285837e-01
        50         3        7.473348e-01
        51         3       -7.011373e-01
        52         3        1.118746e+00
        53         3        1.250670e+00
        54         3        6.604276e-01
        55         3       -4.893115e-01
        56         3        2.923494e-01
        57         3        1.412020e+00
        58         3       -1.644551e-02
        59         3       -1.442586e+00
        60         3       -9.446025e-02
        61         3       -9.710956e-01
        62         3        7.348757e-01
        63         3        3.735891e-02
        64         3       -1.545183e+00
        65         3       -2.162335e-01
        66         3        1.348087e+00
        67         3        7.624602e-01
        68         3        5.532638e-01
        69         3       -1.590976e+00
        70         3       -6.137907e-01
        71         3        1.064411e+00
        72         3        5.190530e-01
        73         3       -1.282098e-01
        74         3        5.926574e-01
        75         3        3.971159e-01
        76         3       -1.062066e+00
        77         3       -4.268150e-01
        78         3       -2.156724e+00
        79         3        1.576507e+00
        80         3       -1.260760e+00
        81         3       -6.794309e-01
        82         3        4.613210e-01
        83         3       -7.989317e-01
        84         3        5.154940e-02
        85         3       -7.340009e-01
        86         3        1.360663e-01
        87         3       -6.457696e-02
        88         3        1.216908e+00
        89         3       -8.836181e-01
        90         3        1.168708e+00
        91         3       -1.966046e-01
        92         3        1.200057e+00
        93         3       -2.966172e-01
        94         3        1.665359e+00
        95         3       -5.646618e-02
        96         3        1.266532e-01
        97         3       -1.468686e+00
        98         3        1.527066e-01
        99         3       -9.050138e-01
       100         3        6.810885e-01
         1         4        7.152062e-02
         2         4       -5.303414e-01
         3         4        1.585198e+00
         4         4       -2.702906e-01
         5         4       -7.867616e-01
         6         4       -1.242873e-01
         7         4        2.099038e-01
         8         4       -7.488782e-01
         9         4       -1.070745e+00
        10         4       -1.421074e+00
        11         4       -1.183500e-01
        12         4       -8.517278e-01
        13         4       -3.362734e-01
        14         4        2.862092e-01
        15         4        1.063412e+00
        16         4        1.199838e+00
        17         4       -6.331370e-02
        18         4        6.389469e-01
        19         4       -1.825223e+00
        20         4        4.879531e-01
        21         4        2.634585e-01
        22         4       -3.563006e-01
        23         4        8.041858e-01
        24         4       -9.486016e-01
        25         4        5.090568e-01
        26         4       -3.917580e-01
        27         4       -1.826483e+00
        28         4        7.135395e-01
        29         4        9.178884e-02
        30         4       -1.255025e+00
        31         4       -2.037224e-01
        32         4       -1.259884e-02
        33         4       -1.469757e-01
        34         4        8.348141e-01
        35         4       -5.121422e-01
        36         4        1.157017e+00
        37         4        9.273832e-01
        38         4       -8.729544e-01
        39         4        4.025122e-02
        40         4       -3.025166e-02
        41         4       -8.007298e-01
        42         4       -9.713907e-02
        43         4       -2.076246e-01
        44         4       -1.374933e+00
        45         4        2.320862e+00
        46         4        3.636414e-01
        47         4        5.510282e-02
        48         4        1.004235e+00
        49         4       -1.924373e+00
        50         4        1.862762e+00
        51         4       -3.094332e+00
        52         4       -8.213502e-01
        53         4       -5.604180e-04
        54         4       -1.867934e+00
        55         4       -7.443095e-01
        56         4        1.360636e+00
        57         4        9.907269e-02
        58         4        4.531967e-01
        59         4        1.050852e-01
        60         4        7.398747e-01
        61         4       -2.289057e-01
        62         4       -1.406314e+00
        63         4        7.503222e-01
        64         4       -7.746582e-01
        65         4       -8.570284e-01
        66         4       -1.597594e+00
        67         4       -2.424913e-01
        68         4        1.975983e+00
        69         4        8.530747e-02
        70         4       -1.156656e+00
        71         4       -4.562007e-01
        72         4       -2.278978e-02
        73         4        5.902964e-01
        74         4       -1.259571e+00
        75         4        2.094661e-01
        76         4        2.954890e+00
        77         4       -2.190758e-01
        78         4        8.993613e-03
        79         4       -3.830201e-01
        80         4       -1.009806e+00
        81         4        5.912817e-01
        82         4        4.799146e-01
        83         4       -2.285534e-01
        84         4        3.821568e-01
        85         4       -4.931412e-01
        86         4       -5.341650e-01
        87         4        2.369347e-01
        88         4       -1.844849e+00
        89         4        1.500247e+00
        90         4        6.952914e-01
        91         4       -3.328645e-01
        92         4       -8.016531e-01
        93         4        3.263146e-01
        94         4        2.185521e+00
        95         4        3.322577e-01
        96         4       -1.199800e+00
        97         4        1.690301e+00
        98         4       -7.644252e-01
        99         4       -8.775791e-01
       100         4       -2.586005e-01
         1         5       -3.523050e-01
         2         5       -3.218940e-01
         3         5       -6.774880e-01
         4         5       -1.350671e+00
         5         5        4.682853e-01
         6         5        3.143757e-01
         7         5       -4.737931e-01
         8         5        8.863412e-01
         9         5        2.567142e+00
        10         5       -1.198485e-01
        11         5       -1.208903e+00
        12         5        2.908914e-01
        13         5        1.504484e+00
        14         5        1.591746e+00
        15         5        3.819813e-01
        16         5       -1.753409e-01
        17         5       -2.029883e+00
        18         5        2.006789e+00
        19         5        1.105388e-01
        20         5       -4.120089e-01
        21         5        1.858389e-01
        22         5        1.233528e+00
        23         5       -6.971323e-02
        24         5        3.569362e-01
        25         5        1.234765e+00
        26         5       -1.052452e+00
        27         5       -5.413812e-01
        28         5       -4.023023e-02
        29         5        7.595310e-01
        30         5       -2.898129e-01
        31         5       -1.274118e+00
        32         5        1.223528e+00
        33         5       -7.167524e-01
        34         5       -4.808161e-01
        35         5        1.203903e+00
        36         5        9.708419e-01
        37         5        2.337094e-01
        38         5       -1.392423e-02
        39         5       -1.722744e+00
        40         5       -7.803265e-01
        41         5       -1.336349e-01
        42         5        2.513271e-02
        43         5        2.690724e-01
        44         5       -5.502982e-02
        45         5       -1.879478e-01
        46         5        1.666779e-02
        47         5       -9.525355e-01
        48         5       -1.474593e-01
        49         5       -9.761858e-01
        50         5        4.384090e-01
        51         5        1.732452e-01
        52         5       -1.311926e+00
        53         5       -5.510474e-01
        54         5        1.085797e+00
        55         5       -9.734837e-01
        56         5        1.749654e+00
        57         5        6.398541e-01
        58         5       -1.316049e+00
        59         5        1.618327e+00
        60         5       -1.988557e+00
        61         5        9.078694e-01
        62         5        4.817925e-01
        63         5        4.529792e-01
        64         5        1.934852e+00
        65         5       -8.234328e-01
        66         5        3.867409e-01
        67         5       -4.762802e-02
        68         5       -6.075896e-01
        69         5       -1.718060e+00
        70         5        1.134926e+00
        71         5        4.691665e-01
        72         5        5.332476e-01
        73         5        1.078280e+00
        74         5       -2.486371e-01
        75         5        3.571270e-01
        76         5        7.475404e-01
        77         5        2.296828e-01
        78         5        1.423272e+00
        79         5       -1.277936e+00
        80         5        3.553905e-01
        81         5       -1.020909e+00
        82         5       -1.244121e+00
        83         5       -8.472029e-01
        84         5        7.054264e-01
        85         5       -1.226242e+00
        86         5        1.136573e+00
        87         5        2.437558e-01
        88         5       -8.304051e-01
        89         5        1.104244e+00
        90         5       -5.757101e-01
        91         5       -3.805684e-01
        92         5        3.185332e-01
        93         5       -8.461936e-02
        94         5        1.675980e+00
        95         5       -5.451019e-01
        96         5        1.444083e+00
        97         5        4.470746e-01
        98         5        5.363941e-01
        99         5       -3.485513e-01
       100         5        1.184113e+00
;

param theta:=
    1        2.058349e-01
    2        1.324281e-01
    3       -5.228884e-01
    4        9.398261e-01
    5       -1.362148e+00
;
param X_true:=
    1        8.279083e-01
    2        8.660650e-01
    3        9.453726e-01
    4        2.033614e+00
    5       -1.591109e+00
    6       -6.479117e-01
    7        9.027230e-01
    8       -2.354144e+00
    9       -4.679401e+00
   10       -1.131955e+00
   11        2.040904e+00
   12       -2.905273e-01
   13       -1.855534e+00
   14       -1.365946e+00
   15       -3.224928e-01
   16        1.149762e+00
   17        2.410758e+00
   18       -2.640613e+00
   19       -1.983697e+00
   20        1.270155e+00
   21       -9.180884e-02
   22       -1.001991e+00
   23        1.297193e+00
   24       -2.194780e+00
   25       -9.723091e-01
   26        1.043225e+00
   27       -1.905898e+00
   28        1.230380e+00
   29       -1.512218e+00
   30       -1.003984e+00
   31        1.739988e+00
   32       -1.416548e+00
   33        1.554788e+00
   34        7.924341e-01
   35       -3.004162e+00
   36       -3.908740e-01
   37        1.191445e+00
   38       -6.258527e-01
   39        3.040457e+00
   40        1.519493e+00
   41       -3.970851e-01
   42       -9.004226e-01
   43       -8.034961e-01
   44       -1.183797e+00
   45        1.571905e+00
   46        3.392034e-01
   47        7.467062e-01
   48        1.573311e+00
   49       -6.794359e-01
   50        6.209781e-01
   51       -2.773397e+00
   52        7.217082e-01
   53        1.789005e-01
   54       -3.777139e+00
   55        6.760347e-01
   56       -1.290215e+00
   57       -1.698770e+00
   58        2.759141e+00
   59       -1.618907e+00
   60        3.626257e+00
   61       -1.093598e+00
   62       -2.213569e+00
   63        1.742225e-01
   64       -2.463529e+00
   65        4.281330e-01
   66       -2.713566e+00
   67       -9.212042e-02
   68        1.909320e+00
   69        3.455508e+00
   70       -2.449509e+00
   71       -1.590099e+00
   72       -1.057253e+00
   73       -7.711297e-01
   74       -1.437844e+00
   75       -4.266576e-02
   76        1.910706e+00
   77       -6.558312e-02
   78       -8.839069e-01
   79        6.414706e-01
   80       -7.199960e-01
   81        2.116781e+00
   82        1.964280e+00
   83        1.183971e+00
   84       -6.920713e-01
   85        1.661701e+00
   86       -2.319272e+00
   87       -3.378662e-01
   88       -1.648118e+00
   89        1.664550e-01
   90        1.086212e+00
   91        6.175405e-01
   92       -1.846228e+00
   93        6.263002e-01
   94       -1.135124e+00
   95        8.814130e-01
   96       -3.170534e+00
   97        1.686565e+00
   98       -1.367335e+00
   99        2.616447e-01
  100       -2.266265e+00
;
param X:=
    1        8.279083e-01
    2        8.660650e-01
    3       -2.761255e-02
    4        2.033614e+00
    5       -1.591109e+00
    6       -6.479117e-01
    7        9.027230e-01
    8       -2.354144e+00
    9       -4.679401e+00
   10       -1.131955e+00
   11        2.040904e+00
   12       -2.905273e-01
   13       -1.855534e+00
   14       -1.365946e+00
   15       -3.224928e-01
   16        1.149762e+00
   17        2.410758e+00
   18       -5.024687e-01
   19       -1.983697e+00
   20        1.270155e+00
   21       -9.180884e-02
   22       -1.001991e+00
   23        1.297193e+00
   24       -4.004912e-01
   25       -9.723091e-01
   26        1.043225e+00
   27       -1.905898e+00
   28        1.230380e+00
   29       -1.512218e+00
   30       -1.003984e+00
   31        1.739988e+00
   32       -1.416548e+00
   33        1.554788e+00
   34        7.924341e-01
   35       -3.004162e+00
   36       -3.908740e-01
   37        1.191445e+00
   38       -6.258527e-01
   39        3.040457e+00
   40        1.519493e+00
   41       -3.970851e-01
   42       -9.004226e-01
   43       -8.034961e-01
   44       -1.183797e+00
   45        1.571905e+00
   46        3.392034e-01
   47        7.467062e-01
   48        1.573311e+00
   49       -6.794359e-01
   50       -2.030697e-01
   51       -2.773397e+00
   52        7.217082e-01
   53        1.789005e-01
   54       -3.777139e+00
   55        6.760347e-01
   56       -1.290215e+00
   57       -1.698770e+00
   58        2.759141e+00
   59       -1.618907e+00
   60        3.626257e+00
   61        1.092546e+00
   62       -2.213569e+00
   63        1.742225e-01
   64       -2.463529e+00
   65        1.010408e+00
   66       -2.713566e+00
   67       -9.212042e-02
   68        2.749719e-01
   69       -2.874297e-01
   70       -2.449509e+00
   71       -1.590099e+00
   72       -1.057253e+00
   73       -7.711297e-01
   74       -1.437844e+00
   75       -4.266576e-02
   76        1.910706e+00
   77       -6.558312e-02
   78       -8.839069e-01
   79        6.414706e-01
   80       -7.199960e-01
   81        2.116781e+00
   82        1.964280e+00
   83        2.151985e+00
   84       -6.920713e-01
   85        1.661701e+00
   86       -2.319272e+00
   87       -3.378662e-01
   88       -1.648118e+00
   89        1.664550e-01
   90        1.086212e+00
   91        6.175405e-01
   92       -1.846228e+00
   93        6.263002e-01
   94       -1.135124e+00
   95        8.814130e-01
   96       -3.170534e+00
   97        1.686565e+00
   98       -1.367335e+00
   99        2.616447e-01
  100        2.541221e-01
;
param outliervec:=
    1    0
    2    0
    3    1
    4    0
    5    0
    6    0
    7    0
    8    0
    9    0
   10    0
   11    0
   12    0
   13    0
   14    0
   15    0
   16    0
   17    0
   18    1
   19    0
   20    0
   21    0
   22    0
   23    0
   24    1
   25    0
   26    0
   27    0
   28    0
   29    0
   30    0
   31    0
   32    0
   33    0
   34    0
   35    0
   36    0
   37    0
   38    0
   39    0
   40    0
   41    0
   42    0
   43    0
   44    0
   45    0
   46    0
   47    0
   48    0
   49    0
   50    1
   51    0
   52    0
   53    0
   54    0
   55    0
   56    0
   57    0
   58    0
   59    0
   60    0
   61    1
   62    0
   63    0
   64    0
   65    1
   66    0
   67    0
   68    1
   69    1
   70    0
   71    0
   72    0
   73    0
   74    0
   75    0
   76    0
   77    0
   78    0
   79    0
   80    0
   81    0
   82    0
   83    1
   84    0
   85    0
   86    0
   87    0
   88    0
   89    0
   90    0
   91    0
   92    0
   93    0
   94    0
   95    0
   96    0
   97    0
   98    0
   99    0
  100    1
;